SDVRP instances/p04/p04_3070_tsplib0_split0.vrp
NAME:.\SDVRP_split
BEST_KNOWN: 0
COMMENT: 0
DIMENSION: 856
CAPACITY: 200
EDGE_WEIGHT_FORMAT: FUNCTION
EDGE_WEIGHT_TYPE: EXACT_2D
NODE_COORD_SECTION
1 0.00000 0.00000
2 2 17
3 2 17
4 2 17
5 2 17
6 2 17
7 2 17
8 2 17
9 14 14
10 14 14
11 14 14
12 14 14
13 17 29
14 17 29
15 17 29
16 17 29
17 17 29
18 17 29
19 17 29
20 -15 -9
21 -15 -9
22 -15 -9
23 -15 -9
24 -15 -9
25 5 -5
26 5 -5
27 5 -5
28 5 -5
29 5 -5
30 -14 12
31 -14 12
32 -14 12
33 -14 12
34 -14 12
35 -14 12
36 -14 12
37 -18 28
38 -18 28
39 -18 28
40 -18 28
41 -18 28
42 -18 28
43 -18 28
44 -18 28
45 -4 27
46 -4 27
47 -4 27
48 -4 27
49 -4 27
50 -4 27
51 17 -2
52 17 -2
53 17 -2
54 17 -2
55 17 -2
56 17 -2
57 16 -14
58 16 -14
59 16 -14
60 7 6
61 7 6
62 7 6
63 7 6
64 7 6
65 -4 -3
66 -4 -3
67 -4 -3
68 -4 -3
69 -30 -10
70 -30 -10
71 -30 -10
72 -30 -10
73 -30 -10
74 -30 -10
75 -30 -10
76 -23 7
77 -23 7
78 -23 7
79 -23 7
80 1 -19
81 1 -19
82 1 -19
83 1 -19
84 1 -19
85 1 -19
86 1 -19
87 17 6
88 17 6
89 17 6
90 17 6
91 -8 -12
92 -8 -12
93 -8 -12
94 -8 -12
95 -8 -12
96 -18 -2
97 -18 -2
98 -18 -2
99 -22 -22
100 -22 -22
101 -22 -22
102 -22 -22
103 -22 -22
104 -22 -22
105 -22 -22
106 22 23
107 22 23
108 22 23
109 22 23
110 22 23
111 27 7
112 27 7
113 27 7
114 27 7
115 27 7
116 27 7
117 7 22
118 7 22
119 7 22
120 7 22
121 -19 22
122 -19 22
123 -19 22
124 -19 22
125 -19 22
126 -27 17
127 -27 17
128 -27 17
129 -27 17
130 -27 17
131 -27 17
132 -28 3
133 -28 3
134 -28 3
135 -28 3
136 -28 3
137 -8 33
138 -8 33
139 -8 33
140 -8 33
141 -8 33
142 -8 33
143 -8 33
144 -8 33
145 -5 13
146 -5 13
147 -5 13
148 8 32
149 8 32
150 8 32
151 8 32
152 23 13
153 23 13
154 23 13
155 23 13
156 23 -8
157 23 -8
158 23 -8
159 23 -8
160 23 -8
161 23 -8
162 2 34
163 2 34
164 2 34
165 2 34
166 2 34
167 2 34
168 2 34
169 3 11
170 3 11
171 3 11
172 3 11
173 3 11
174 11 -25
175 11 -25
176 11 -25
177 11 -25
178 11 -25
179 11 -25
180 26 -2
181 26 -2
182 26 -2
183 26 -2
184 26 -2
185 26 -2
186 26 -2
187 27 28
188 27 28
189 27 28
190 27 28
191 27 28
192 27 28
193 27 28
194 28 34
195 28 34
196 28 34
197 28 34
198 28 34
199 28 34
200 28 34
201 -3 -13
202 -3 -13
203 -3 -13
204 -3 -13
205 10 0
206 10 0
207 10 0
208 10 0
209 10 0
210 10 0
211 10 0
212 24 -20
213 24 -20
214 24 -20
215 24 -20
216 24 -20
217 24 -20
218 24 -20
219 -30 -29
220 -30 -29
221 -30 -29
222 -30 -29
223 -30 -29
224 -30 -29
225 -25 -18
226 -25 -18
227 -25 -18
228 -25 -18
229 -25 -18
230 -25 -18
231 -14 -25
232 -14 -25
233 -14 -25
234 -14 -25
235 -14 -25
236 -30 29
237 -30 29
238 -30 29
239 -30 29
240 -5 -20
241 -5 -20
242 -5 -20
243 -5 -20
244 -5 -20
245 -5 -20
246 4 -25
247 4 -25
248 4 -25
249 4 -25
250 -3 4
251 -3 4
252 -3 4
253 -10 -3
254 -10 -3
255 -10 -3
256 -10 -3
257 -10 -3
258 -10 -3
259 -10 -3
260 -10 -3
261 -10 20
262 -10 20
263 -10 20
264 -10 20
265 -10 20
266 13 -7
267 13 -7
268 13 -7
269 13 -7
270 13 -7
271 13 -7
272 13 -7
273 21 2
274 21 2
275 21 2
276 21 2
277 21 2
278 21 2
279 21 2
280 21 2
281 6 14
282 6 14
283 6 14
284 6 14
285 6 14
286 6 14
287 0 -18
288 0 -18
289 0 -18
290 0 -18
291 0 -18
292 20 10
293 20 10
294 20 10
295 20 10
296 20 10
297 20 -15
298 20 -15
299 20 -15
300 20 -15
301 20 -15
302 20 -15
303 -20 -5
304 -20 -5
305 -20 -5
306 -20 -5
307 -20 -5
308 -20 -5
309 -20 -5
310 -20 -5
311 -20 -5
312 -10 -5
313 -10 -5
314 -10 -5
315 -10 -5
316 -10 -5
317 -10 -5
318 -10 -5
319 -10 -5
320 -15 15
321 -15 15
322 -15 15
323 -15 15
324 -25 8
325 -25 8
326 -25 8
327 -25 8
328 -25 8
329 -25 8
330 -25 8
331 20 25
332 20 25
333 20 25
334 20 25
335 -5 25
336 -5 25
337 -5 25
338 -5 25
339 -5 25
340 -5 25
341 -15 30
342 -15 30
343 -15 30
344 -15 30
345 15 0
346 15 0
347 15 0
348 -5 -10
349 -5 -10
350 -5 -10
351 -5 -10
352 -5 -10
353 -20 -25
354 -20 -25
355 -20 -25
356 -20 -25
357 -5 -30
358 -5 -30
359 -5 -30
360 -5 -30
361 -5 -30
362 -5 -30
363 -25 -15
364 -25 -15
365 -25 -15
366 -25 -15
367 -25 -15
368 -25 -15
369 -25 -15
370 -30 -5
371 -30 -5
372 -30 -5
373 -30 -5
374 -30 -5
375 -30 -5
376 -30 -5
377 -15 5
378 -15 5
379 -15 5
380 -15 5
381 -15 5
382 -15 5
383 -20 25
384 -20 25
385 -20 25
386 -20 25
387 -20 25
388 -20 25
389 -20 25
390 -20 25
391 10 30
392 10 30
393 10 30
394 10 30
395 10 30
396 10 30
397 10 30
398 10 30
399 10 -15
400 10 -15
401 10 -15
402 10 -15
403 10 -15
404 10 -15
405 10 -15
406 10 -25
407 10 -25
408 10 -25
409 10 -25
410 10 -25
411 20 -30
412 20 -30
413 20 -30
414 20 -30
415 20 -30
416 20 -30
417 20 -30
418 30 0
419 30 0
420 30 0
421 30 0
422 30 0
423 30 0
424 30 0
425 30 0
426 30 0
427 30 -15
428 30 -15
429 30 -15
430 30 -15
431 10 -5
432 10 -5
433 10 -5
434 10 -5
435 10 -5
436 0 5
437 0 5
438 0 5
439 0 5
440 0 5
441 0 5
442 6 2
443 6 2
444 6 2
445 6 2
446 6 2
447 6 2
448 6 2
449 6 2
450 29 7
451 29 7
452 29 7
453 29 7
454 29 7
455 29 7
456 5 25
457 5 25
458 5 25
459 5 25
460 5 25
461 -4 17
462 -4 17
463 -4 17
464 -4 17
465 -4 17
466 0 34
467 0 34
468 0 34
469 18 17
470 18 17
471 18 17
472 18 17
473 18 17
474 18 17
475 30 20
476 30 20
477 30 20
478 30 20
479 30 20
480 28 30
481 28 30
482 28 30
483 28 30
484 28 30
485 28 30
486 28 30
487 28 30
488 -33 25
489 -33 25
490 -33 25
491 -33 25
492 -15 -15
493 -15 -15
494 -15 -15
495 -15 -15
496 -15 -15
497 -15 -15
498 -15 -15
499 -15 -15
500 -30 -30
501 -30 -30
502 -30 -30
503 -30 -30
504 -30 -30
505 25 -23
506 25 -23
507 25 -23
508 25 -23
509 25 -23
510 25 -23
511 25 -23
512 5 -10
513 5 -10
514 5 -10
515 5 -10
516 5 -10
517 5 -10
518 5 -10
519 7 -28
520 7 -28
521 7 -28
522 7 -28
523 7 -28
524 7 -28
525 -11 -23
526 -11 -23
527 -11 -23
528 -11 -23
529 -11 -23
530 -11 -23
531 -12 -32
532 -12 -32
533 -12 -32
534 -12 -32
535 -12 -32
536 -24 -21
537 -24 -21
538 -24 -21
539 -24 -21
540 -24 -21
541 -24 -21
542 -24 -21
543 -29 3
544 -29 3
545 -29 3
546 -29 3
547 -29 3
548 -29 3
549 -33 13
550 -33 13
551 -33 13
552 -33 13
553 -33 13
554 -27 21
555 -27 21
556 -27 21
557 -27 21
558 -22 17
559 -22 17
560 -22 17
561 -22 17
562 -22 17
563 -29 33
564 -29 33
565 -29 33
566 -29 33
567 12 12
568 12 12
569 12 12
570 12 12
571 12 12
572 12 12
573 14 23
574 14 23
575 14 23
576 14 23
577 14 23
578 14 23
579 -8 8
580 -8 8
581 -8 8
582 -8 8
583 -8 8
584 2 -4
585 2 -4
586 2 -4
587 22 -6
588 22 -6
589 22 -6
590 22 -6
591 22 -6
592 22 -6
593 22 -6
594 28 -12
595 28 -12
596 28 -12
597 28 -12
598 28 -12
599 28 -12
600 18 -23
601 18 -23
602 18 -23
603 18 -23
604 18 -23
605 18 -23
606 18 -23
607 -3 -23
608 -3 -23
609 -3 -23
610 -3 -23
611 -3 -23
612 -3 -23
613 1 -9
614 1 -9
615 1 -9
616 1 -9
617 1 -9
618 -14 -11
619 -14 -11
620 -14 -11
621 -14 -11
622 -14 -11
623 -18 -1
624 -18 -1
625 -18 -1
626 -18 -1
627 -18 -1
628 -18 -1
629 -23 -11
630 -23 -11
631 -23 -11
632 -23 -11
633 -23 -11
634 -23 -11
635 -11 23
636 -11 23
637 -11 23
638 -11 23
639 -11 23
640 -11 23
641 -8 34
642 -8 34
643 -8 34
644 -20 42
645 -20 42
646 -20 42
647 -20 42
648 27 42
649 27 42
650 27 42
651 27 42
652 27 42
653 27 42
654 27 42
655 14 38
656 14 38
657 14 38
658 14 38
659 32 -30
660 32 -30
661 32 -30
662 32 -30
663 32 -30
664 32 -30
665 32 -30
666 21 4
667 21 4
668 21 4
669 21 4
670 21 4
671 21 4
672 2 12
673 2 12
674 2 12
675 2 12
676 2 21
677 2 21
678 2 21
679 2 21
680 2 21
681 2 21
682 22 33
683 22 33
684 22 33
685 22 33
686 22 33
687 22 33
688 12 -19
689 12 -19
690 12 -19
691 12 -19
692 12 -19
693 12 -19
694 12 -19
695 12 -19
696 9 -18
697 9 -18
698 9 -18
699 9 -18
700 11 -22
701 11 -22
702 11 -22
703 14 -24
704 14 -24
705 14 -24
706 14 -24
707 14 -24
708 14 7
709 14 7
710 14 7
711 14 7
712 18 8
713 18 8
714 18 8
715 18 8
716 18 8
717 18 8
718 18 8
719 18 8
720 26 17
721 26 17
722 26 17
723 26 17
724 26 17
725 26 17
726 26 17
727 26 17
728 22 13
729 22 13
730 22 13
731 22 13
732 22 13
733 22 13
734 21 2
735 21 2
736 21 2
737 21 2
738 21 2
739 21 2
740 20 19
741 20 19
742 20 19
743 20 19
744 -20 12
745 -20 12
746 -20 12
747 -20 12
748 -20 12
749 -20 12
750 -20 12
751 -21 2
752 -21 2
753 -21 2
754 -21 2
755 -24 -4
756 -24 -4
757 -24 -4
758 -24 -4
759 -24 -4
760 -24 -4
761 -24 -4
762 -24 -4
763 -19 -13
764 -19 -13
765 -19 -13
766 -19 -13
767 -19 -13
768 -31 -17
769 -31 -17
770 -31 -17
771 -31 -17
772 -31 -17
773 -31 -17
774 -7 -17
775 -7 -17
776 -7 -17
777 -7 -17
778 -7 -17
779 -9 17
780 -9 17
781 -9 17
782 -9 17
783 -9 17
784 -9 0
785 -9 0
786 -9 0
787 -9 0
788 -4 32
789 -4 32
790 -4 32
791 -4 32
792 -4 32
793 -4 32
794 -4 32
795 -20 -16
796 -20 -16
797 -20 -16
798 -20 -16
799 -20 -16
800 -13 -13
801 -13 -13
802 -13 -13
803 -13 -13
804 -13 -13
805 -13 -13
806 -13 -13
807 -13 -13
808 -17 -11
809 -17 -11
810 -17 -11
811 -17 -11
812 -17 -11
813 -17 -11
814 -9 -8
815 -9 -8
816 -9 -8
817 -9 -8
818 -9 -8
819 -10 -11
820 -10 -11
821 -10 -11
822 -10 -11
823 -10 -11
824 -13 -8
825 -13 -8
826 -13 -8
827 -13 -8
828 -13 -8
829 -13 -8
830 -10 -14
831 -10 -14
832 -10 -14
833 -10 -14
834 -10 -14
835 -10 -14
836 -10 -14
837 -10 -14
838 -10 -14
839 -16 -14
840 -16 -14
841 -16 -14
842 -16 -14
843 -16 -14
844 -16 -14
845 -16 -14
846 -15 -9
847 -15 -9
848 -15 -9
849 -15 -9
850 -15 -9
851 -17 -17
852 -17 -17
853 -17 -17
854 -17 -17
855 -17 -17
856 -17 -17
DEMAND_SECTION
1 0
2 40
3 40
4 40
5 2
6 2
7 2
8 2
9 40
10 40
11 10
12 1
13 40
14 20
15 10
16 2
17 2
18 2
19 2
20 40
21 40
22 20
23 2
24 2
25 40
26 40
27 40
28 10
29 2
30 40
31 40
32 40
33 2
34 2
35 2
36 2
37 40
38 40
39 10
40 2
41 2
42 2
43 2
44 1
45 40
46 20
47 2
48 2
49 2
50 2
51 40
52 20
53 10
54 2
55 2
56 2
57 40
58 20
59 2
60 40
61 40
62 40
63 2
64 2
65 40
66 40
67 10
68 1
69 40
70 40
71 10
72 2
73 2
74 2
75 1
76 40
77 40
78 20
79 1
80 40
81 40
82 20
83 10
84 2
85 2
86 2
87 40
88 40
89 2
90 1
91 40
92 20
93 2
94 2
95 2
96 40
97 40
98 20
99 40
100 40
101 40
102 2
103 2
104 2
105 2
106 40
107 40
108 20
109 2
110 1
111 40
112 20
113 2
114 2
115 2
116 2
117 40
118 40
119 20
120 10
121 40
122 40
123 20
124 10
125 2
126 40
127 40
128 20
129 2
130 2
131 2
132 40
133 40
134 40
135 2
136 1
137 40
138 40
139 20
140 10
141 2
142 2
143 2
144 2
145 40
146 20
147 2
148 40
149 40
150 40
151 2
152 40
153 20
154 10
155 2
156 40
157 20
158 2
159 2
160 2
161 2
162 40
163 40
164 40
165 2
166 2
167 2
168 2
169 40
170 40
171 40
172 2
173 2
174 40
175 40
176 40
177 2
178 2
179 2
180 40
181 20
182 10
183 2
184 2
185 2
186 1
187 40
188 40
189 40
190 2
191 2
192 2
193 1
194 40
195 40
196 10
197 2
198 2
199 2
200 2
201 40
202 40
203 40
204 2
205 40
206 40
207 10
208 2
209 2
210 2
211 2
212 40
213 40
214 10
215 2
216 2
217 2
218 2
219 40
220 40
221 40
222 2
223 2
224 2
225 40
226 20
227 10
228 2
229 2
230 1
231 40
232 20
233 2
234 2
235 1
236 40
237 40
238 20
239 10
240 40
241 40
242 20
243 10
244 2
245 1
246 40
247 40
248 40
249 10
250 40
251 40
252 2
253 40
254 40
255 10
256 2
257 2
258 2
259 2
260 1
261 40
262 40
263 10
264 2
265 2
266 40
267 40
268 40
269 2
270 2
271 2
272 1
273 40
274 40
275 20
276 2
277 2
278 2
279 2
280 1
281 40
282 40
283 20
284 10
285 2
286 1
287 40
288 40
289 20
290 10
291 2
292 40
293 20
294 2
295 2
296 2
297 40
298 40
299 40
300 10
301 2
302 1
303 40
304 40
305 20
306 10
307 2
308 2
309 2
310 2
311 1
312 40
313 40
314 20
315 10
316 2
317 2
318 2
319 2
320 40
321 40
322 2
323 2
324 40
325 40
326 20
327 10
328 2
329 2
330 2
331 40
332 40
333 10
334 2
335 40
336 40
337 2
338 2
339 2
340 1
341 40
342 40
343 40
344 10
345 40
346 40
347 1
348 40
349 40
350 2
351 2
352 1
353 40
354 40
355 2
356 1
357 40
358 40
359 2
360 2
361 2
362 2
363 40
364 40
365 10
366 2
367 2
368 2
369 2
370 40
371 40
372 40
373 2
374 2
375 2
376 2
377 40
378 20
379 2
380 2
381 2
382 1
383 40
384 40
385 40
386 10
387 2
388 2
389 2
390 2
391 40
392 40
393 40
394 2
395 2
396 2
397 2
398 1
399 40
400 40
401 40
402 10
403 2
404 2
405 1
406 40
407 40
408 40
409 10
410 1
411 40
412 40
413 40
414 2
415 2
416 2
417 1
418 40
419 40
420 40
421 10
422 2
423 2
424 2
425 2
426 1
427 40
428 20
429 2
430 2
431 40
432 40
433 2
434 2
435 2
436 40
437 40
438 20
439 2
440 2
441 2
442 40
443 40
444 20
445 10
446 2
447 2
448 2
449 1
450 40
451 40
452 20
453 2
454 2
455 1
456 40
457 40
458 40
459 2
460 2
461 40
462 40
463 20
464 10
465 2
466 40
467 40
468 2
469 40
470 40
471 20
472 10
473 2
474 2
475 40
476 40
477 20
478 10
479 1
480 40
481 40
482 40
483 10
484 2
485 2
486 2
487 2
488 40
489 40
490 40
491 2
492 40
493 40
494 40
495 10
496 2
497 2
498 2
499 2
500 40
501 40
502 40
503 2
504 2
505 40
506 40
507 40
508 2
509 2
510 2
511 2
512 40
513 20
514 2
515 2
516 2
517 2
518 1
519 40
520 40
521 40
522 2
523 2
524 1
525 40
526 40
527 20
528 2
529 2
530 2
531 40
532 20
533 10
534 2
535 2
536 40
537 40
538 40
539 10
540 2
541 2
542 1
543 40
544 40
545 20
546 10
547 2
548 2
549 40
550 40
551 40
552 2
553 1
554 40
555 40
556 40
557 1
558 40
559 40
560 10
561 2
562 2
563 40
564 40
565 40
566 1
567 40
568 20
569 2
570 2
571 2
572 2
573 40
574 40
575 20
576 10
577 2
578 1
579 40
580 40
581 40
582 2
583 1
584 40
585 40
586 40
587 40
588 40
589 40
590 10
591 2
592 2
593 2
594 40
595 40
596 10
597 2
598 2
599 1
600 40
601 20
602 10
603 2
604 2
605 2
606 1
607 40
608 20
609 2
610 2
611 2
612 1
613 40
614 40
615 20
616 2
617 2
618 40
619 40
620 2
621 2
622 1
623 40
624 40
625 40
626 10
627 2
628 1
629 40
630 40
631 40
632 10
633 2
634 1
635 40
636 40
637 20
638 10
639 2
640 1
641 40
642 20
643 1
644 40
645 40
646 2
647 2
648 40
649 40
650 20
651 10
652 2
653 2
654 1
655 40
656 40
657 10
658 1
659 40
660 40
661 2
662 2
663 2
664 2
665 1
666 40
667 40
668 40
669 2
670 2
671 2
672 40
673 40
674 40
675 1
676 40
677 40
678 40
679 10
680 2
681 2
682 40
683 40
684 2
685 2
686 2
687 1
688 40
689 40
690 10
691 2
692 2
693 2
694 2
695 1
696 40
697 20
698 2
699 2
700 40
701 40
702 10
703 40
704 40
705 20
706 10
707 2
708 40
709 40
710 20
711 2
712 40
713 40
714 40
715 10
716 2
717 2
718 2
719 1
720 40
721 40
722 10
723 2
724 2
725 2
726 2
727 1
728 40
729 40
730 20
731 10
732 2
733 2
734 40
735 40
736 10
737 2
738 2
739 2
740 40
741 40
742 20
743 10
744 40
745 40
746 20
747 2
748 2
749 2
750 2
751 40
752 40
753 40
754 2
755 40
756 40
757 20
758 10
759 2
760 2
761 2
762 2
763 40
764 40
765 40
766 2
767 1
768 40
769 40
770 20
771 2
772 2
773 2
774 40
775 40
776 20
777 2
778 2
779 40
780 40
781 2
782 2
783 1
784 40
785 40
786 2
787 2
788 40
789 40
790 40
791 10
792 2
793 2
794 1
795 40
796 40
797 20
798 2
799 2
800 40
801 40
802 20
803 2
804 2
805 2
806 2
807 1
808 40
809 40
810 20
811 2
812 2
813 2
814 40
815 20
816 10
817 2
818 2
819 40
820 40
821 20
822 10
823 2
824 40
825 40
826 20
827 10
828 2
829 2
830 40
831 40
832 40
833 10
834 2
835 2
836 2
837 2
838 1
839 40
840 20
841 10
842 2
843 2
844 2
845 1
846 40
847 40
848 20
849 2
850 2
851 40
852 40
853 2
854 2
855 2
856 2
DEPOT_SECTION
1
-1
EOF