SDVRP instances/p04/p04_3070_tsplib0_split0.sol
855 -3 2 4 6 678 677 679 676 680 -5 1 7 117 575 576 577 574 572 573 -16 14 683 197 194 195 196 193 199 198 479 481 483 485 484 486 -20 845 846 847 19 313 -25 26 24 583 585 -28 27 269 268 270 265 266 267 271 432 431 433 -30 29 31 320 319 -37 39 43 42 38 40 41 36 384 382 385 251 -47 46 44 45 48 49 164 165 161 166 163 162 167 -57 58 56 297 300 299 301 298 296 -60 10 8 11 9 566 571 570 567 569 568 -61 59 62 63 709 707 710 708 -65 66 64 67 785 786 783 784 -69 70 71 72 68 74 73 364 362 366 363 367 365 368 -78 77 76 75 743 748 749 744 747 -79 80 83 85 289 290 288 286 287 -81 84 82 245 522 520 521 519 518 523 -86 87 666 667 665 -88 89 714 715 153 151 152 154 732 728 727 731 729 -92 94 90 91 93 831 829 836 830 -96 95 97 625 626 623 -110 112 113 114 111 115 449 453 450 454 452 451 670 668 669 206 209 207 208 -116 457 456 455 675 -119 118 390 391 396 397 395 465 466 467 -123 562 565 563 564 236 237 -124 122 120 121 558 557 561 559 560 -126 128 127 130 554 553 555 556 32 34 35 33 581 582 -129 125 548 550 549 552 551 325 326 -133 134 131 135 132 754 756 760 -137 143 139 136 138 142 646 644 643 645 -140 141 642 641 640 792 791 790 793 787 788 789 -144 461 464 460 463 462 440 435 438 439 -145 146 343 342 340 341 387 388 386 383 389 -159 157 594 595 598 593 596 597 428 426 427 429 180 181 -160 158 156 155 592 591 589 590 587 586 588 -170 169 673 671 672 -175 174 173 700 699 -184 182 185 183 179 419 420 417 422 421 423 424 418 425 277 278 738 276 -189 191 186 190 192 187 188 482 480 721 725 730 -200 201 203 202 613 614 616 615 -205 204 210 446 442 443 445 444 441 448 447 -215 212 505 506 509 507 601 605 600 603 599 -217 216 214 211 213 510 504 508 660 659 664 658 662 661 663 604 602 693 692 690 -219 222 218 221 223 772 768 769 770 771 767 -227 224 226 228 229 225 537 539 536 535 -234 231 233 232 230 98 99 100 104 102 101 103 853 855 806 -241 244 240 239 774 773 776 833 834 837 832 835 -243 242 356 359 361 357 358 360 534 530 533 531 532 777 775 -249 250 579 578 580 -257 256 255 259 258 254 253 252 314 312 311 317 318 -264 263 262 261 260 779 778 780 781 782 -272 733 736 273 734 735 279 274 275 737 -282 284 393 394 392 150 148 147 149 459 458 674 -285 280 283 281 168 172 171 437 436 -291 295 292 293 294 718 713 712 716 711 717 -310 306 309 305 302 303 304 308 307 624 627 622 -316 315 23 22 810 808 807 809 812 811 766 762 763 619 621 620 -322 321 238 235 490 488 489 487 746 745 -329 324 327 323 328 543 546 545 542 544 547 -330 333 18 12 15 17 13 657 654 656 655 -332 331 106 109 105 107 108 741 471 472 -336 339 338 337 335 334 636 635 634 638 639 637 -346 345 344 54 55 53 52 51 50 430 434 -349 350 351 347 348 819 822 818 820 821 -354 353 355 352 526 525 524 529 527 528 -374 369 370 375 372 373 371 759 757 758 755 761 -381 376 380 379 378 377 751 750 753 752 -399 401 398 511 516 517 514 513 512 515 584 -404 400 403 402 691 687 688 689 694 696 695 -409 405 408 407 406 176 178 177 703 705 701 -411 413 414 415 412 410 416 706 704 702 698 697 -470 473 469 468 742 739 740 -478 474 477 476 475 722 724 720 719 723 726 -496 495 497 491 492 498 493 494 839 838 -499 502 501 503 500 220 540 538 541 798 797 842 840 841 844 843 -610 609 608 611 607 606 247 248 246 612 -618 617 803 802 805 804 801 799 800 -629 628 630 633 632 631 764 765 21 848 849 -653 648 651 650 652 649 647 686 685 684 682 681 -795 796 794 854 851 852 850 -816 815 814 817 813 824 826 827 823 825 828 0 





OBJ=
4474.960
BEST_KNOWN=
0.000